qbf_easy_train/easy_5608_SAT.qdimacs
p cnf 31 81
a 3 4 20 0
e 1 2 5 6 7 8 9 10 11 12 13 14 15 16 17 18 19 21 22 23 24 25 26 27 28 29 30 31 0
3 -1 0
3 2 0
1 -2 -3 0
-6 -2 -7 0
6 2 -7 0
-6 2 7 0
6 -2 7 0
-8 5 0
-8 -7 0
-5 7 8 0
9 -6 0
9 1 0
6 -1 -9 0
10 8 0
10 -9 0
-8 9 -10 0
12 10 0
12 11 0
-10 -11 -12 0
13 12 0
13 -9 0
-12 9 -13 0
14 4 0
14 -13 0
-4 13 -14 0
-15 -8 0
-15 13 0
8 -13 15 0
16 14 0
16 15 0
-14 -15 -16 0
-8 -17 -18 0
8 17 -18 0
-8 17 18 0
8 -17 18 0
18 1 -19 0
-18 -1 -19 0
18 -1 19 0
-18 1 19 0
-19 6 -20 0
19 -6 -20 0
-19 -6 20 0
19 6 20 0
22 21 0
22 7 0
-21 -7 -22 0
-18 -1 -23 0
18 1 -23 0
-18 1 23 0
18 -1 23 0
-24 19 0
-24 23 0
-19 -23 24 0
-25 -24 0
-25 -19 0
24 19 25 0
-26 22 0
-26 25 0
-22 -25 26 0
-27 -20 0
-27 26 0
20 -26 27 0
-28 16 0
-28 27 0
-16 -27 28 0
-29 6 0
-29 -6 0
-30 -28 0
-30 29 0
28 -29 30 0
31 3 0
31 30 0
-3 -30 -31 0
7 25 28 27 20 -5 0
-30 2 -23 0
-13 8 16 -14 24 0
-14 8 -13 1 15 31 10 0
-19 -31 -16 -4 23 -8 0
-13 20 5 -17 -8 6 10 0
-6 -17 -10 15 -25 -27 0
31 0
