sat_easy_train/easy_5608_SAT.dimacs
p cnf 113 381
-1 -2 -3 0
1 2 -3 0
-1 2 3 0
1 -2 3 0
5 3 0
5 4 0
-3 -4 -5 0
-7 5 0
-7 -6 0
-5 6 7 0
-9 7 0
-9 -8 0
-7 8 9 0
-12 10 0
-12 -11 0
-10 11 12 0
-14 -12 0
-14 -13 0
12 13 14 0
-9 -14 -15 0
9 14 -15 0
-9 14 15 0
9 -14 15 0
16 -13 0
16 -4 0
13 4 -16 0
18 -16 0
18 17 0
16 -17 -18 0
-19 18 0
-19 4 0
-18 -4 19 0
-21 20 0
-21 4 0
-20 -4 21 0
22 16 0
22 -21 0
-16 21 -22 0
19 -22 -23 0
-19 22 -23 0
19 22 23 0
-19 -22 23 0
-25 5 0
-25 -1 0
-5 1 25 0
26 -24 0
26 -25 0
24 25 -26 0
27 -26 0
27 -1 0
26 1 -27 0
-29 -26 0
-29 -28 0
26 28 29 0
-4 29 -30 0
4 -29 -30 0
-4 -29 30 0
4 29 30 0
7 -2 -31 0
-7 2 -31 0
7 2 31 0
-7 -2 31 0
16 -12 -32 0
-16 12 -32 0
16 12 32 0
-16 -12 32 0
32 3 -33 0
-32 -3 -33 0
32 -3 33 0
-32 3 33 0
-34 -31 0
-34 33 0
31 -33 34 0
35 30 0
35 -34 0
-30 34 -35 0
36 27 0
36 35 0
-27 -35 -36 0
-23 -36 -37 0
23 36 -37 0
-23 36 37 0
23 -36 37 0
-39 -38 0
-39 12 0
38 -12 39 0
40 -17 0
40 -10 0
17 10 -40 0
42 6 0
42 -41 0
-6 41 -42 0
-42 12 -43 0
42 -12 -43 0
-42 -12 43 0
42 12 43 0
-44 40 0
-44 -43 0
-40 43 44 0
-45 -39 0
-45 -44 0
39 44 45 0
-2 6 -46 0
2 -6 -46 0
-2 -6 46 0
2 6 46 0
-47 -46 0
-47 39 0
46 -39 47 0
-47 7 -48 0
47 -7 -48 0
-47 -7 48 0
47 7 48 0
49 46 0
49 47 0
-46 -47 -49 0
50 -49 0
50 47 0
49 -47 -50 0
-51 -48 0
-51 50 0
48 -50 51 0
-21 -5 -52 0
21 5 -52 0
-21 5 52 0
21 -5 52 0
-51 -52 -53 0
51 52 -53 0
-51 52 53 0
51 -52 53 0
54 -45 0
54 53 0
45 -53 -54 0
-13 24 -55 0
13 -24 -55 0
-13 -24 55 0
13 24 55 0
-56 21 0
-56 55 0
-21 -55 56 0
-57 56 0
-57 49 0
-56 -49 57 0
13 -57 -58 0
-13 57 -58 0
13 57 58 0
-13 -57 58 0
-60 2 0
-60 59 0
-2 -59 60 0
-61 -58 0
-61 -60 0
58 60 61 0
39 28 -62 0
-39 -28 -62 0
39 -28 62 0
-39 28 62 0
63 -10 0
63 62 0
10 -62 -63 0
61 -63 -64 0
-61 63 -64 0
61 63 64 0
-61 -63 64 0
-65 25 0
-65 -3 0
-25 3 65 0
-66 12 0
-66 -65 0
-12 65 66 0
-67 -66 0
-67 -57 0
66 57 67 0
-68 -4 0
-68 21 0
4 -21 68 0
69 68 0
69 -12 0
-68 12 -69 0
-70 -69 0
-70 5 0
69 -5 70 0
71 67 0
71 -70 0
-67 70 -71 0
-64 71 -72 0
64 -71 -72 0
-64 -71 72 0
64 71 72 0
73 54 0
73 72 0
-54 -72 -73 0
37 73 -74 0
-37 -73 -74 0
37 -73 74 0
-37 73 74 0
43 -66 -75 0
-43 66 -75 0
43 66 75 0
-43 -66 75 0
76 75 0
76 13 0
-75 -13 -76 0
77 -48 0
77 -76 0
48 76 -77 0
13 77 -78 0
-13 -77 -78 0
13 -77 78 0
-13 77 78 0
79 66 0
79 78 0
-66 -78 -79 0
-62 28 -80 0
62 -28 -80 0
-62 -28 80 0
62 28 80 0
-6 3 -81 0
6 -3 -81 0
-6 -3 81 0
6 3 81 0
-82 -80 0
-82 81 0
80 -81 82 0
-79 -82 -83 0
79 82 -83 0
-79 82 83 0
79 -82 83 0
-84 -74 0
-84 83 0
74 -83 84 0
85 15 0
85 84 0
-15 -84 -85 0
47 8 -86 0
-47 -8 -86 0
47 -8 86 0
-47 8 86 0
-1 17 -87 0
1 -17 -87 0
-1 -17 87 0
1 17 87 0
75 -66 -88 0
-75 66 -88 0
75 66 88 0
-75 -66 88 0
-69 -88 -89 0
69 88 -89 0
-69 88 89 0
69 -88 89 0
87 89 -90 0
-87 -89 -90 0
87 -89 90 0
-87 89 90 0
-91 -86 0
-91 -90 0
86 90 91 0
92 11 0
92 26 0
-11 -26 -92 0
93 -68 0
93 -92 0
68 92 -93 0
-94 -93 0
-94 -26 0
93 26 94 0
95 -94 0
95 7 0
94 -7 -95 0
57 69 -96 0
-57 -69 -96 0
57 -69 96 0
-57 69 96 0
-97 95 0
-97 -96 0
-95 96 97 0
20 -5 -98 0
-20 5 -98 0
20 5 98 0
-20 -5 98 0
8 -20 -99 0
-8 20 -99 0
8 20 99 0
-8 -20 99 0
-100 -98 0
-100 -99 0
98 99 100 0
-101 -50 0
-101 -1 0
50 1 101 0
101 47 -102 0
-101 -47 -102 0
101 -47 102 0
-101 47 102 0
-103 100 0
-103 -102 0
-100 102 103 0
-104 97 0
-104 -103 0
-97 103 104 0
-105 4 -106 0
105 -4 -106 0
-105 -4 106 0
105 4 106 0
26 -48 -107 0
-26 48 -107 0
26 48 107 0
-26 -48 107 0
-106 107 -108 0
106 -107 -108 0
-106 -107 108 0
106 107 108 0
94 26 -109 0
-94 -26 -109 0
94 -26 109 0
-94 26 109 0
108 -109 -110 0
-108 109 -110 0
108 109 110 0
-108 -109 110 0
-111 104 0
-111 -110 0
-104 110 111 0
112 -91 0
112 111 0
91 -111 -112 0
-85 112 -113 0
85 -112 -113 0
-85 -112 113 0
85 112 113 0
-111 -78 -16 0
28 93 0
-10 -55 0
-30 -47 0
14 -93 105 0
46 56 -54 0
78 106 111 -35 51 -72 0
-26 43 0
-95 4 61 -104 0
-18 60 99 22 0
-81 -53 -82 -12 -31 0
-44 -76 -102 0
80 82 0
-18 -11 0
15 90 -53 102 0
60 68 37 0
41 58 -75 -4 -108 -90 0
-76 63 -27 64 4 0
-22 -89 56 -84 -103 77 0
26 -74 0
-45 -82 95 -35 -47 0
21 -85 86 15 -103 80 0
3 -12 64 50 0
72 27 -31 -46 107 0
-46 -95 0
43 17 0
55 48 -74 -7 14 -91 0
4 -55 0
88 -74 -34 77 -56 -73 0
-52 3 -88 -27 62 -47 0
-45 -16 0
-59 -38 99 79 -98 0
-103 -32 79 0
108 -42 -60 25 0
73 7 0
-101 -56 83 0
62 9 39 113 79 51 0
-16 -51 56 35 -90 0
-25 -111 31 -112 52 -32 0
95 19 -97 -102 54 78 0
-33 -77 -11 47 10 0
-45 17 106 0
24 -47 0
110 25 0
17 22 37 49 0
-67 17 111 0
21 85 -2 96 0
-15 106 0
27 -71 -14 -110 0
111 -83 0
113 0
